proyfinal/src/viki/013/experimentInOfficeAgust.take6.output/26adcfe2-26f6-4ee6-bcfc-3e99322ee32e.als.dat
{'cnf.clauses': '118081',
 'cnf.totvars': '69608',
 'conflict literals': '5',
 'conflicts': '5',
 'decisions': '4985',
 'memused.mb': '16.71',
 'outcome': 'UNSAT',
 'propagations': '30061',
 'restarts': '1',
 'solver.msecs': 34,
 'task.msecs': 80}
