proyfinal/src/viki/013/experimentInOfficeAgust.take6.output/26adcfe2-26f6-4ee6-bcfc-3e99322ee32e.als.out
Reading from standard input... Use '--help' for help.
============================[ Problem Statistics ]=============================
|                                                                             |
|  Number of variables:         69608                                         |
|  Number of clauses:          118081                                         |
|  Parse time:                   0.03 s                                       |
|                                                                             |
============================[ Search Statistics ]==============================
| Conflicts |          ORIGINAL         |          LEARNT          | Progress |
|           |    Vars  Clauses Literals |    Limit  Clauses Lit/Cl |          |
===============================================================================
===============================================================================
restarts              : 1
conflicts             : 5              (143 /sec)
decisions             : 4985           (0.00 % random) (142543 /sec)
propagations          : 30061          (859573 /sec)
conflict literals     : 5              (0.00 % deleted)
Memory used           : 16.71 MB
CPU time              : 0.034972 s

UNSATISFIABLE
